NAME: custom33
TYPE: TSP
COMMENT: 
DIMENSION: 33
NODE_COORD_SECTION
1 534 535
2 676 403
3 773 325
4 867 251
5 953 324
6 1057 248
7 1056 330
8 1055 424
9 867 559
10 873 413
11 690 248
12 222.76734693877566 42.72908163265299
13 194.2492857142858 18.819999999999936
14 151.6162244897961 70.38295918367339
15 98.9010204081633 106.10255102040799
16 64.00397959183692 109.55928571428558
17 136.63704081632662 122.2339795918366
18 135.19673469387774 183.30295918367335
19 155.937142857143 183.87908163265286
20 188.20000000000007 208.6523469387754
21 162.56255102040822 336.2634693877551
22 153.34459183673474 310.92612244897964
23 134.9086734693878 335.11122448979586
24 76.72030612244913 359.5964285714284
25 136.3489795918369 420.95346938775515
26 161.12224489795932 394.45183673469376
27 217.2941836734694 342.18897959183664
28 210.14193877551025 364.4934693877551
29 219.31061224489798 381.2010204081631
30 240.3390816326532 396.1802040816325
31 242.06744897959186 509.9643877551021
32 18.82 468.4835714285714
EOF
